(set-logic QF_S)
(declare-fun var0 () String)
(assert (str.in.re var0 (re.++ (re.union (re.* (str.to.re "0")) (re.* (str.to.re "11"))) (re.++ (re.+ (re.+ (str.to.re "222"))) (re.++ (re.union (re.+ (str.to.re "333")) (re.union (str.to.re "444") (str.to.re "555"))) (re.++ (re.+ (re.union (str.to.re "66") (str.to.re "77"))) (re.++ (re.union (re.union (str.to.re "88") (str.to.re "999")) (re.* (str.to.re "aaa"))) (re.++ (re.+ (re.union (str.to.re "b") (str.to.re "ccc"))) (re.++ (re.+ (re.+ (str.to.re "d"))) (re.++ (re.* (re.union (str.to.re "ee") (str.to.re "ff"))) (re.++ (re.+ (re.union (str.to.re "g") (str.to.re "hhh"))) (re.++ (re.union (re.union (str.to.re "i") (str.to.re "jj")) (re.* (str.to.re "kkk"))) (re.++ (re.union (re.* (str.to.re "lll")) (re.+ (str.to.re "mm"))) (re.++ (re.union (re.+ (str.to.re "nnn")) (re.* (str.to.re "oo"))) (re.++ (re.* (re.+ (str.to.re "pp"))) (re.++ (re.union (re.union (str.to.re "qq") (str.to.re "r")) (re.* (str.to.re "ss"))) (re.++ (re.* (re.+ (str.to.re "ttt"))) (re.++ (re.* (re.union (str.to.re "uu") (str.to.re "vvv"))) (re.++ (re.union (re.* (str.to.re "www")) (re.+ (str.to.re "xxx"))) (re.++ (re.union (re.+ (str.to.re "yyy")) (re.union (str.to.re "zz") (str.to.re "AAA"))) (re.++ (re.+ (re.+ (str.to.re "B"))) (re.++ (re.union (re.union (str.to.re "CCC") (str.to.re "DDD")) (re.* (str.to.re "EEE"))) (re.+ (re.union (str.to.re "F") (str.to.re "G")))))))))))))))))))))))))
(assert (not (str.in.re var0 (re.++ (re.+ (re.union (str.to.re "0") (str.to.re "1"))) (re.++ (re.* (re.+ (str.to.re "22"))) (re.++ (re.* (re.union (str.to.re "33") (str.to.re "44"))) (re.++ (re.* (re.* (str.to.re "55"))) (re.++ (re.union (re.* (str.to.re "666")) (re.+ (str.to.re "77"))) (re.++ (re.* (re.union (str.to.re "8") (str.to.re "999"))) (re.++ (re.* (re.+ (str.to.re "aaa"))) (re.++ (re.+ (re.* (str.to.re "bb"))) (re.++ (re.+ (re.union (str.to.re "c") (str.to.re "ddd"))) (re.++ (re.union (re.* (str.to.re "e")) (re.+ (str.to.re "ff"))) (re.++ (re.union (re.union (str.to.re "g") (str.to.re "h")) (re.* (str.to.re "ii"))) (re.++ (re.+ (re.union (str.to.re "jj") (str.to.re "k"))) (re.++ (re.+ (re.union (str.to.re "l") (str.to.re "mmm"))) (re.++ (re.+ (re.+ (str.to.re "n"))) (re.++ (re.union (re.+ (str.to.re "o")) (re.+ (str.to.re "p"))) (re.++ (re.* (re.* (str.to.re "qq"))) (re.++ (re.* (re.union (str.to.re "r") (str.to.re "sss"))) (re.++ (re.+ (re.* (str.to.re "t"))) (re.++ (re.union (re.union (str.to.re "uu") (str.to.re "vvv")) (re.+ (str.to.re "www"))) (re.++ (re.* (re.union (str.to.re "x") (str.to.re "y"))) (re.+ (re.* (str.to.re "z"))))))))))))))))))))))))))
(check-sat)